3 
4  35 50 
5  05 20 35 47 53 59 
6  04 08 14 19 24 29 34 39 44 49 54 59 
7  04 09 14 19 24 29 34 39 44 49 54 59 
8  04 09 14 19 24 29 34 39 44 49 55 
9  00 05 12 20 27 35 42 50 58 
10  05 13 20 28 35 43 50 58 
11  05 13 20 28 35 43 50 58 
12  05 13 20 28 35 43 50 58 
13  05 13 20 28 35 43 50 58 
14  05 11 15 20 25 30 35 40 45 50 55 
15  00 05 10 15 20 25 30 35 40 45 50 55 
16  00 05 10 15 20 25 30 35 40 45 50 55 
17  00 05 10 15 20 25 30 35 40 45 52 59 
18  07 13 19 24 30 35 39 45 52 59 
19  07 15 22 30 37 44 52 
20  00 12 27 42 57 
21  12 27 42 57 
22  12 27 42 57 
23 
0 
